n = 11;

Q = 3;
 
c = [
[1000 80 97 58 62 40 31 44 70 10 90],
[80 1000 41 70 28 88 50 72 10 70 10],
[97 41 1000 108 36 120 67 106 44 89 40],
[58 70 108 1000 75 31 60 14 64 53 78],
[62 28 36 75 1000 84 31 72 22 53 36],
[40 88 120 31 84 1000 58 20 80 41 97],
[31 50 67 60 31 58 1000 50 41 22 60],
[44 72 106 14 72 20 50 1000 64 41 80],
[70 10 44 64 22 80 41 64 1000 60 20],
[10 70 89 53 53 41 22 41 60 1000 80],
[90 10 40 78 36 97 60 80 20 80 1000]
];


